NAME : in_house_7_18
TYPE : TSP
DIMENSION : 7
EDGE_WEIGHT_TYPE : EXPLICIT
EDGE_WEIGHT_FORMAT : UPPER_ROW
COMMENT : INVERSION_SHIFT=2
EDGE_WEIGHT_SECTION
47
46
21
34
24
27
32
44
14
23
45
43
34
43
39
23
17
3
23
42
18
